\ENCODING=ISO-8859-1
\Problem name: ilog.cplex

Maximize
 obj: 694 x(0)#0 + 668 x(1)#1 + 755 x(2)#2 + 826 x(3)#3 + 568 x(4)#4
      + 989 x(5)#5 + 530 x(6)#6 + 604 x(7)#7 + 946 x(8)#8 + 904 x(9)#9
      + 456 x(10)#10 + 899 x(11)#11 + 847 x(12)#12 + 636 x(13)#13
      + 593 x(14)#14 + 791 x(15)#15 + 824 x(16)#16 + 676 x(17)#17
      + 602 x(18)#18 + 1030 x(19)#19 + 753 x(20)#20 + 502 x(21)#21
      + 605 x(22)#22 + 789 x(23)#23 + 654 x(24)#24 + 902 x(25)#25
      + 750 x(26)#26 + 507 x(27)#27 + 914 x(28)#28 + 578 x(29)#29
      + 871 x(30)#30 + 757 x(31)#31 + 719 x(32)#32 + 667 x(33)#33
      + 1046 x(34)#34 + 863 x(35)#35 + 610 x(36)#36 + 1023 x(37)#37
      + 600 x(38)#38 + 367 x(39)#39 + 885 x(40)#40 + 680 x(41)#41
      + 911 x(42)#42 + 791 x(43)#43 + 1021 x(44)#44 + 556 x(45)#45
      + 768 x(46)#46 + 511 x(47)#47 + 465 x(48)#48 + 667 x(49)#49
      + 840 x(50)#50 + 779 x(51)#51 + 454 x(52)#52 + 728 x(53)#53
      + 554 x(54)#54 + 581 x(55)#55 + 825 x(56)#56 + 559 x(57)#57
      + 631 x(58)#58 + 992 x(59)#59 + 472 x(60)#60 + 633 x(61)#61
      + 834 x(62)#62 + 580 x(63)#63 + 680 x(64)#64 + 574 x(65)#65
      + 805 x(66)#66 + 706 x(67)#67 + 661 x(68)#68 + 1175 x(69)#69
      + 972 x(70)#70 + 863 x(71)#71 + 549 x(72)#72 + 662 x(73)#73
      + 620 x(74)#74 + 994 x(75)#75 + 777 x(76)#76 + 738 x(77)#77
      + 756 x(78)#78 + 683 x(79)#79 + 635 x(80)#80 + 934 x(81)#81
      + 769 x(82)#82 + 363 x(83)#83 + 687 x(84)#84 + 715 x(85)#85
      + 614 x(86)#86 + 838 x(87)#87 + 636 x(88)#88 + 630 x(89)#89
      + 478 x(90)#90 + 961 x(91)#91 + 785 x(92)#92 + 713 x(93)#93
      + 792 x(94)#94 + 744 x(95)#95 + 562 x(96)#96 + 838 x(97)#97
      + 446 x(98)#98 + 1055 x(99)#99
Subject To
 c1:  300 x(0)#0 + 312 x(1)#1 + 576 x(2)#2 + 457 x(3)#3 + 753 x(4)#4
      + 964 x(5)#5 + 561 x(6)#6 + 826 x(7)#7 + 136 x(8)#8 + 369 x(9)#9
      + 372 x(10)#10 + 510 x(11)#11 + 34 x(12)#12 + 871 x(13)#13 + 708 x(14)#14
      + 446 x(15)#15 + 821 x(16)#16 + 126 x(17)#17 + 646 x(18)#18
      + 838 x(19)#19 + 986 x(20)#20 + 180 x(21)#21 + 758 x(22)#22
      + 448 x(23)#23 + 883 x(24)#24 + 993 x(25)#25 + 19 x(26)#26 + 285 x(27)#27
      + 213 x(28)#28 + 738 x(29)#29 + 897 x(30)#30 + 43 x(31)#31 + 82 x(32)#32
      + 199 x(33)#33 + 777 x(34)#34 + 956 x(35)#35 + 539 x(36)#36
      + 589 x(37)#37 + 243 x(38)#38 + 140 x(39)#39 + 232 x(40)#40
      + 259 x(41)#41 + 599 x(42)#42 + 297 x(43)#43 + 367 x(44)#44
      + 781 x(45)#45 + 406 x(46)#46 + 536 x(47)#47 + 317 x(48)#48
      + 729 x(49)#49 + 788 x(50)#50 + 844 x(51)#51 + 848 x(52)#52
      + 846 x(53)#53 + 105 x(54)#54 + 837 x(55)#55 + 960 x(56)#56
      + 485 x(57)#57 + 36 x(58)#58 + 881 x(59)#59 + 585 x(60)#60 + 327 x(61)#61
      + 143 x(62)#62 + 846 x(63)#63 + 114 x(64)#64 + 981 x(65)#65
      + 776 x(66)#66 + 3 x(67)#67 + 306 x(68)#68 + 996 x(69)#69 + 293 x(70)#70
      + 761 x(71)#71 + 264 x(72)#72 + 401 x(73)#73 + 677 x(74)#74
      + 645 x(75)#75 + 911 x(76)#76 + 118 x(77)#77 + 318 x(78)#78
      + 979 x(79)#79 + 235 x(80)#80 + 271 x(81)#81 + 874 x(82)#82
      + 617 x(83)#83 + 719 x(84)#84 + 384 x(85)#85 + 201 x(86)#86
      + 257 x(87)#87 + 201 x(88)#88 + 115 x(89)#89 + 277 x(90)#90
      + 980 x(91)#91 + 860 x(92)#92 + 146 x(93)#93 + 200 x(94)#94
      + 398 x(95)#95 + 604 x(96)#96 + 97 x(97)#97 + 301 x(98)#98 + 686 x(99)#99
      <= 25307
 c2:  727 x(0)#0 + 393 x(1)#1 + 192 x(2)#2 + 689 x(3)#3 + 360 x(4)#4
      + 259 x(5)#5 + 55 x(6)#6 + 428 x(7)#7 + 243 x(8)#8 + 859 x(9)#9
      + 701 x(10)#10 + 926 x(11)#11 + 895 x(12)#12 + 584 x(13)#13
      + 115 x(14)#14 + 927 x(15)#15 + 191 x(16)#16 + 508 x(17)#17
      + 117 x(18)#18 + 891 x(19)#19 + 231 x(20)#20 + 656 x(21)#21
      + 518 x(22)#22 + 52 x(23)#23 + 918 x(24)#24 + 990 x(25)#25 + 299 x(26)#26
      + 955 x(27)#27 + 752 x(28)#28 + 307 x(29)#29 + 807 x(30)#30
      + 684 x(31)#31 + 313 x(32)#32 + 226 x(33)#33 + 836 x(34)#34
      + 828 x(35)#35 + 104 x(36)#36 + 154 x(37)#37 + 908 x(38)#38
      + 412 x(39)#39 + 313 x(40)#40 + 843 x(41)#41 + 459 x(42)#42
      + 275 x(43)#43 + 841 x(44)#44 + 50 x(45)#45 + 749 x(46)#46 + 364 x(47)#47
      + 392 x(48)#48 + 562 x(49)#49 + 807 x(50)#50 + 437 x(51)#51 + 56 x(52)#52
      + 903 x(53)#53 + 334 x(54)#54 + 394 x(55)#55 + 711 x(56)#56 + 48 x(57)#57
      + 17 x(58)#58 + 285 x(59)#59 + 142 x(60)#60 + 620 x(61)#61 + 783 x(62)#62
      + 807 x(63)#63 + 343 x(64)#64 + 578 x(65)#65 + 768 x(66)#66
      + 594 x(67)#67 + x(68)#68 + 885 x(69)#69 + 446 x(70)#70 + 422 x(71)#71
      + 307 x(72)#72 + 846 x(73)#73 + 607 x(74)#74 + 128 x(75)#75
      + 770 x(76)#76 + 608 x(77)#77 + 745 x(78)#78 + 186 x(79)#79
      + 290 x(80)#80 + 593 x(81)#81 + 868 x(82)#82 + 493 x(83)#83
      + 678 x(84)#84 + 197 x(85)#85 + 566 x(86)#86 + 127 x(87)#87
      + 496 x(88)#88 + 914 x(89)#89 + 810 x(90)#90 + 364 x(91)#91
      + 887 x(92)#92 + 132 x(93)#93 + 213 x(94)#94 + 685 x(95)#95
      + 243 x(96)#96 + 390 x(97)#97 + 878 x(98)#98 + 611 x(99)#99 <= 25436
 c3:  10 x(0)#0 + 573 x(1)#1 + 138 x(2)#2 + 178 x(3)#3 + 320 x(4)#4
      + 813 x(5)#5 + 810 x(6)#6 + 102 x(7)#7 + 601 x(8)#8 + 975 x(9)#9
      + 335 x(10)#10 + 935 x(11)#11 + 694 x(12)#12 + 49 x(13)#13 + 247 x(14)#14
      + 476 x(15)#15 + 784 x(16)#16 + 668 x(17)#17 + 550 x(18)#18 + 33 x(19)#19
      + 367 x(20)#20 + 116 x(21)#21 + 781 x(22)#22 + 680 x(23)#23
      + 714 x(24)#24 + 954 x(25)#25 + 345 x(26)#26 + 79 x(27)#27 + 669 x(28)#28
      + 616 x(29)#29 + 931 x(30)#30 + 247 x(31)#31 + 779 x(32)#32
      + 121 x(33)#33 + 419 x(34)#34 + 993 x(35)#35 + 216 x(36)#36 + 87 x(37)#37
      + 76 x(38)#38 + 22 x(39)#39 + 709 x(40)#40 + 121 x(41)#41 + 550 x(42)#42
      + 285 x(43)#43 + 715 x(44)#44 + 547 x(45)#45 + 838 x(46)#46
      + 475 x(47)#47 + 750 x(48)#48 + 996 x(49)#49 + 117 x(50)#50
      + 953 x(51)#51 + 494 x(52)#52 + 581 x(53)#53 + 147 x(54)#54
      + 392 x(55)#55 + 343 x(56)#56 + 446 x(57)#57 + 690 x(58)#58
      + 574 x(59)#59 + 419 x(60)#60 + 304 x(61)#61 + 882 x(62)#62 + 78 x(63)#63
      + 180 x(64)#64 + 450 x(65)#65 + 287 x(66)#66 + x(67)#67 + 932 x(68)#68
      + 949 x(69)#69 + 365 x(70)#70 + 686 x(71)#71 + 392 x(72)#72
      + 638 x(73)#73 + 383 x(74)#74 + 266 x(75)#75 + 769 x(76)#76
      + 334 x(77)#77 + 578 x(78)#78 + 784 x(79)#79 + 640 x(80)#80
      + 876 x(81)#81 + 900 x(82)#82 + 87 x(83)#83 + 116 x(84)#84 + 173 x(85)#85
      + 540 x(86)#86 + 174 x(87)#87 + 182 x(88)#88 + 593 x(89)#89
      + 488 x(90)#90 + 112 x(91)#91 + 831 x(92)#92 + 437 x(93)#93
      + 257 x(94)#94 + 192 x(95)#95 + 6 x(96)#96 + 567 x(97)#97 + 239 x(98)#98
      + 467 x(99)#99 <= 23390
 c4:  243 x(0)#0 + 542 x(1)#1 + 212 x(2)#2 + 103 x(3)#3 + 402 x(4)#4
      + 61 x(5)#5 + 89 x(6)#6 + 503 x(7)#7 + 112 x(8)#8 + 131 x(9)#9
      + 354 x(10)#10 + 748 x(11)#11 + 743 x(12)#12 + 324 x(13)#13
      + 723 x(14)#14 + 763 x(15)#15 + 242 x(16)#16 + 621 x(17)#17
      + 935 x(18)#18 + 905 x(19)#19 + 327 x(20)#20 + 90 x(21)#21 + 781 x(22)#22
      + 766 x(23)#23 + 311 x(24)#24 + 399 x(25)#25 + 233 x(26)#26
      + 116 x(27)#27 + 967 x(28)#28 + 193 x(29)#29 + 731 x(30)#30
      + 479 x(31)#31 + 228 x(32)#32 + 250 x(33)#33 + 802 x(34)#34
      + 793 x(35)#35 + 177 x(36)#36 + 550 x(37)#37 + 958 x(38)#38
      + 212 x(39)#39 + 72 x(40)#40 + 521 x(41)#41 + 168 x(42)#42 + 383 x(43)#43
      + 498 x(44)#44 + 605 x(45)#45 + 746 x(46)#46 + 365 x(47)#47
      + 790 x(48)#48 + 356 x(49)#49 + 957 x(50)#50 + 976 x(51)#51
      + 562 x(52)#52 + 954 x(53)#53 + 335 x(54)#54 + 432 x(55)#55
      + 341 x(56)#56 + 511 x(57)#57 + 402 x(58)#58 + 124 x(59)#59
      + 537 x(60)#60 + 439 x(61)#61 + 18 x(62)#62 + 788 x(63)#63 + 41 x(64)#64
      + 554 x(65)#65 + 198 x(66)#66 + 484 x(67)#67 + 615 x(68)#68
      + 746 x(69)#69 + 4 x(70)#70 + 737 x(71)#71 + 50 x(72)#72 + 257 x(73)#73
      + 666 x(74)#74 + 913 x(75)#75 + 336 x(76)#76 + 302 x(77)#77
      + 552 x(78)#78 + 173 x(79)#79 + 682 x(80)#80 + 747 x(81)#81
      + 646 x(82)#82 + 453 x(83)#83 + 896 x(84)#84 + 752 x(85)#85
      + 183 x(86)#86 + 599 x(87)#87 + 240 x(88)#88 + 493 x(89)#89
      + 699 x(90)#90 + 694 x(91)#91 + 339 x(92)#92 + 361 x(93)#93
      + 621 x(94)#94 + 668 x(95)#95 + 674 x(96)#96 + 870 x(97)#97
      + 113 x(98)#98 + 880 x(99)#99 <= 24119
 c5:  298 x(0)#0 + 841 x(1)#1 + 276 x(2)#2 + 15 x(3)#3 + 748 x(4)#4
      + 562 x(5)#5 + 840 x(6)#6 + 610 x(7)#7 + 844 x(8)#8 + 784 x(9)#9
      + 294 x(10)#10 + 290 x(11)#11 + 676 x(12)#12 + 257 x(13)#13
      + 618 x(14)#14 + 910 x(15)#15 + 256 x(16)#16 + 68 x(17)#17 + 389 x(18)#18
      + 649 x(19)#19 + 97 x(20)#20 + 231 x(21)#21 + 477 x(22)#22 + 52 x(23)#23
      + 685 x(24)#24 + 872 x(25)#25 + 788 x(26)#26 + 54 x(27)#27 + 653 x(28)#28
      + 549 x(29)#29 + 371 x(30)#30 + 429 x(31)#31 + 36 x(32)#32 + 577 x(33)#33
      + 317 x(34)#34 + 804 x(35)#35 + 944 x(36)#36 + 988 x(37)#37 + 99 x(38)#38
      + 418 x(39)#39 + 827 x(40)#40 + 970 x(41)#41 + 387 x(42)#42
      + 182 x(43)#43 + 606 x(44)#44 + 591 x(45)#45 + 904 x(46)#46
      + 669 x(47)#47 + 26 x(48)#48 + 39 x(49)#49 + 208 x(50)#50 + 23 x(51)#51
      + 142 x(52)#52 + 16 x(53)#53 + 663 x(54)#54 + 396 x(55)#55 + 112 x(56)#56
      + 363 x(57)#57 + 799 x(58)#58 + 706 x(59)#59 + 115 x(60)#60
      + 343 x(61)#61 + 212 x(62)#62 + 251 x(63)#63 + 20 x(64)#64 + 252 x(65)#65
      + 936 x(66)#66 + 992 x(67)#67 + 253 x(68)#68 + 328 x(69)#69
      + 731 x(70)#70 + 25 x(71)#71 + 782 x(72)#72 + 260 x(73)#73 + 441 x(74)#74
      + 904 x(75)#75 + 375 x(76)#76 + 548 x(77)#77 + 649 x(78)#78
      + 488 x(79)#79 + 510 x(80)#80 + 584 x(81)#81 + x(82)#82 + 520 x(83)#83
      + 609 x(84)#84 + 605 x(85)#85 + 139 x(86)#86 + 903 x(87)#87 + 74 x(88)#88
      + 83 x(89)#89 + 429 x(90)#90 + 975 x(91)#91 + 501 x(92)#92 + 637 x(93)#93
      + 451 x(94)#94 + 514 x(95)#95 + 435 x(96)#96 + 410 x(97)#97
      + 205 x(98)#98 + 829 x(99)#99 <= 23307
 c6:  596 x(0)#0 + 470 x(1)#1 + 904 x(2)#2 + 327 x(3)#3 + 662 x(4)#4
      + 679 x(5)#5 + 630 x(6)#6 + 871 x(7)#7 + 960 x(8)#8 + 632 x(9)#9
      + 181 x(10)#10 + 336 x(11)#11 + 237 x(12)#12 + 176 x(13)#13
      + 783 x(14)#14 + 70 x(15)#15 + 873 x(16)#16 + 320 x(17)#17 + 359 x(18)#18
      + 726 x(19)#19 + 253 x(20)#20 + 759 x(21)#21 + 718 x(22)#22
      + 575 x(23)#23 + 786 x(24)#24 + 286 x(25)#25 + 89 x(26)#26 + 594 x(27)#27
      + 151 x(28)#28 + 146 x(29)#29 + 155 x(30)#30 + 154 x(31)#31
      + 963 x(32)#32 + 772 x(33)#33 + 897 x(34)#34 + 731 x(35)#35
      + 338 x(36)#36 + 731 x(37)#37 + 394 x(38)#38 + 629 x(39)#39
      + 639 x(40)#40 + 516 x(41)#41 + 403 x(42)#42 + 997 x(43)#43
      + 189 x(44)#44 + 302 x(45)#45 + 676 x(46)#46 + 424 x(47)#47
      + 542 x(48)#48 + 257 x(49)#49 + 963 x(50)#50 + 223 x(51)#51
      + 480 x(52)#52 + 440 x(53)#53 + 204 x(54)#54 + 112 x(55)#55
      + 322 x(56)#56 + 778 x(57)#57 + 5 x(58)#58 + 538 x(59)#59 + 498 x(60)#60
      + 645 x(61)#61 + 155 x(62)#62 + 631 x(63)#63 + 420 x(64)#64
      + 229 x(65)#65 + 407 x(66)#66 + 855 x(67)#67 + 138 x(68)#68
      + 238 x(69)#69 + 366 x(70)#70 + 776 x(71)#71 + 302 x(72)#72
      + 271 x(73)#73 + 868 x(74)#74 + 624 x(75)#75 + 272 x(76)#76 + 3 x(77)#77
      + 222 x(78)#78 + 462 x(79)#79 + 600 x(80)#80 + 839 x(81)#81
      + 937 x(82)#82 + 267 x(83)#83 + 347 x(84)#84 + 957 x(85)#85
      + 453 x(86)#86 + 716 x(87)#87 + 766 x(88)#88 + 770 x(89)#89
      + 425 x(90)#90 + 444 x(91)#91 + 955 x(92)#92 + 801 x(93)#93
      + 765 x(94)#94 + 52 x(95)#95 + 102 x(96)#96 + 766 x(97)#97 + 474 x(98)#98
      + 754 x(99)#99 <= 25248
 c7:  846 x(0)#0 + 275 x(1)#1 + 746 x(2)#2 + 274 x(3)#3 + 604 x(4)#4
      + 602 x(5)#5 + 7 x(6)#6 + 415 x(7)#7 + 845 x(8)#8 + 102 x(9)#9
      + 533 x(10)#10 + 119 x(11)#11 + 872 x(12)#12 + 962 x(13)#13
      + 911 x(14)#14 + 170 x(15)#15 + 62 x(16)#16 + 926 x(17)#17 + 762 x(18)#18
      + 177 x(19)#19 + 308 x(20)#20 + 550 x(21)#21 + 755 x(22)#22 + 79 x(23)#23
      + 994 x(24)#24 + 369 x(25)#25 + 345 x(26)#26 + 336 x(27)#27
      + 217 x(28)#28 + 713 x(29)#29 + 322 x(30)#30 + 299 x(31)#31
      + 934 x(32)#32 + 999 x(33)#33 + 230 x(34)#34 + 209 x(35)#35
      + 577 x(36)#36 + 452 x(37)#37 + 438 x(38)#38 + 779 x(39)#39
      + 188 x(40)#40 + 976 x(41)#41 + 451 x(42)#42 + 229 x(43)#43
      + 948 x(44)#44 + 387 x(45)#45 + 630 x(46)#46 + 756 x(47)#47
      + 362 x(48)#48 + 748 x(49)#49 + 458 x(50)#50 + 112 x(51)#51
      + 518 x(52)#52 + 645 x(53)#53 + 979 x(54)#54 + 490 x(55)#55 + 7 x(56)#56
      + 579 x(57)#57 + 750 x(58)#58 + 693 x(59)#59 + 277 x(60)#60 + 30 x(61)#61
      + 518 x(62)#62 + 732 x(63)#63 + 563 x(64)#64 + 588 x(65)#65 + 10 x(66)#66
      + 494 x(67)#67 + 789 x(68)#68 + 862 x(69)#69 + 815 x(70)#70
      + 100 x(71)#71 + 806 x(72)#72 + 16 x(73)#73 + 78 x(74)#74 + 982 x(75)#75
      + 262 x(76)#76 + 577 x(77)#77 + 21 x(78)#78 + 57 x(79)#79 + 597 x(80)#80
      + 375 x(81)#81 + 599 x(82)#82 + 498 x(83)#83 + 731 x(84)#84
      + 911 x(85)#85 + 267 x(86)#86 + 167 x(87)#87 + 843 x(88)#88
      + 751 x(89)#89 + 565 x(90)#90 + 225 x(91)#91 + 402 x(92)#92
      + 916 x(93)#93 + 279 x(94)#94 + 107 x(95)#95 + 348 x(96)#96 + 2 x(97)#97
      + 541 x(98)#98 + 938 x(99)#99 <= 24830
 c8:  113 x(0)#0 + 575 x(1)#1 + 747 x(2)#2 + 970 x(3)#3 + 657 x(4)#4
      + 702 x(5)#5 + 782 x(6)#6 + 860 x(7)#7 + 85 x(8)#8 + 397 x(9)#9
      + 589 x(10)#10 + 313 x(11)#11 + 113 x(12)#12 + 310 x(13)#13 + 39 x(14)#14
      + 669 x(15)#15 + 891 x(16)#16 + 445 x(17)#17 + 897 x(18)#18
      + 804 x(19)#19 + 36 x(20)#20 + 221 x(21)#21 + 173 x(22)#22 + 398 x(23)#23
      + 481 x(24)#24 + 667 x(25)#25 + 932 x(26)#26 + 921 x(27)#27
      + 361 x(28)#28 + 752 x(29)#29 + 775 x(30)#30 + 867 x(31)#31 + 27 x(32)#32
      + 968 x(33)#33 + 953 x(34)#34 + 724 x(35)#35 + 623 x(36)#36
      + 227 x(37)#37 + 429 x(38)#38 + 237 x(39)#39 + 993 x(40)#40
      + 878 x(41)#41 + 254 x(42)#42 + 276 x(43)#43 + 709 x(44)#44
      + 305 x(45)#45 + 362 x(46)#46 + 554 x(47)#47 + 246 x(48)#48
      + 206 x(49)#49 + 262 x(50)#50 + 378 x(51)#51 + 580 x(52)#52
      + 111 x(53)#53 + 688 x(54)#54 + 498 x(55)#55 + 777 x(56)#56
      + 284 x(57)#57 + 222 x(58)#58 + 879 x(59)#59 + 826 x(60)#60
      + 135 x(61)#61 + 698 x(62)#62 + 810 x(63)#63 + 317 x(64)#64
      + 352 x(65)#65 + 802 x(66)#66 + 212 x(67)#67 + 39 x(68)#68 + 639 x(69)#69
      + 913 x(70)#70 + 619 x(71)#71 + 867 x(72)#72 + 453 x(73)#73 + 47 x(74)#74
      + 138 x(75)#75 + 105 x(76)#76 + 432 x(77)#77 + 417 x(78)#78
      + 673 x(79)#79 + 116 x(80)#80 + 323 x(81)#81 + 937 x(82)#82 + 73 x(83)#83
      + 154 x(84)#84 + 90 x(85)#85 + 252 x(86)#86 + 406 x(87)#87 + 90 x(88)#88
      + 398 x(89)#89 + 5 x(90)#90 + 195 x(91)#91 + 727 x(92)#92 + 461 x(93)#93
      + 20 x(94)#94 + 47 x(95)#95 + 838 x(96)#96 + 207 x(97)#97 + 6 x(98)#98
      + 185 x(99)#99 <= 23108
 c9:  929 x(0)#0 + 232 x(1)#1 + 91 x(2)#2 + 564 x(3)#3 + 425 x(4)#4
      + 489 x(5)#5 + 418 x(6)#6 + 370 x(7)#7 + 710 x(8)#8 + 549 x(9)#9
      + 316 x(10)#10 + 906 x(11)#11 + 126 x(12)#12 + 627 x(13)#13 + 75 x(14)#14
      + 746 x(15)#15 + 894 x(16)#16 + 384 x(17)#17 + 505 x(18)#18
      + 899 x(19)#19 + 524 x(20)#20 + 578 x(21)#21 + 17 x(22)#22 + 294 x(23)#23
      + 432 x(24)#24 + 133 x(25)#25 + 254 x(26)#26 + 58 x(27)#27 + 519 x(28)#28
      + 182 x(29)#29 + 692 x(30)#30 + 907 x(31)#31 + 5 x(32)#32 + 624 x(33)#33
      + 386 x(34)#34 + 225 x(35)#35 + 229 x(36)#36 + 986 x(37)#37
      + 157 x(38)#38 + 118 x(39)#39 + 386 x(40)#40 + 61 x(41)#41 + 667 x(42)#42
      + 725 x(43)#43 + 275 x(44)#44 + 814 x(45)#45 + 244 x(46)#46 + 67 x(47)#47
      + 89 x(48)#48 + 464 x(49)#49 + 353 x(50)#50 + 807 x(51)#51 + 559 x(52)#52
      + 559 x(53)#53 + 641 x(54)#54 + 576 x(55)#55 + 534 x(56)#56
      + 797 x(57)#57 + 103 x(58)#58 + 843 x(59)#59 + 358 x(60)#60
      + 788 x(61)#61 + 637 x(62)#62 + 385 x(63)#63 + 204 x(64)#64
      + 447 x(65)#65 + 415 x(66)#66 + 418 x(67)#67 + 606 x(68)#68
      + 649 x(69)#69 + 472 x(70)#70 + 268 x(71)#71 + 455 x(72)#72
      + 858 x(73)#73 + 341 x(74)#74 + 498 x(75)#75 + 563 x(76)#76
      + 517 x(77)#77 + 891 x(78)#78 + 381 x(79)#79 + 785 x(80)#80
      + 123 x(81)#81 + 426 x(82)#82 + 91 x(83)#83 + 444 x(84)#84 + 246 x(85)#85
      + 374 x(86)#86 + 185 x(87)#87 + 312 x(88)#88 + 421 x(89)#89
      + 608 x(90)#90 + 66 x(91)#91 + 429 x(92)#92 + 778 x(93)#93 + 193 x(94)#94
      + 837 x(95)#95 + 381 x(96)#96 + 884 x(97)#97 + 130 x(98)#98
      + 247 x(99)#99 <= 22625
 c10: 492 x(0)#0 + 581 x(1)#1 + 916 x(2)#2 + 686 x(3)#3 + 692 x(4)#4
      + 452 x(5)#5 + 475 x(6)#6 + 881 x(7)#7 + 598 x(8)#8 + 304 x(9)#9
      + 346 x(10)#10 + 8 x(11)#11 + 952 x(12)#12 + 937 x(13)#13 + 924 x(14)#14
      + 71 x(15)#15 + 266 x(16)#16 + 406 x(17)#17 + 127 x(18)#18 + 705 x(19)#19
      + 502 x(20)#20 + 221 x(21)#21 + 769 x(22)#22 + 678 x(23)#23
      + 338 x(24)#24 + 999 x(25)#25 + 896 x(26)#26 + 453 x(27)#27 + 79 x(28)#28
      + 904 x(29)#29 + 675 x(30)#30 + 944 x(31)#31 + 895 x(32)#32
      + 519 x(33)#33 + 457 x(34)#34 + 746 x(35)#35 + 257 x(36)#36
      + 833 x(37)#37 + 701 x(38)#38 + 426 x(39)#39 + 292 x(40)#40
      + 606 x(41)#41 + 583 x(42)#42 + 12 x(43)#43 + 709 x(44)#44 + 32 x(45)#45
      + 241 x(46)#46 + 123 x(47)#47 + 185 x(48)#48 + 279 x(49)#49
      + 158 x(50)#50 + 232 x(51)#51 + 296 x(52)#52 + 734 x(53)#53 + 82 x(54)#54
      + 297 x(55)#55 + 303 x(56)#56 + 771 x(57)#57 + 393 x(58)#58
      + 403 x(59)#59 + 604 x(60)#60 + 26 x(61)#61 + 225 x(62)#62 + 101 x(63)#63
      + 128 x(64)#64 + 670 x(65)#65 + 175 x(66)#66 + 498 x(67)#67
      + 839 x(68)#68 + 548 x(69)#69 + 915 x(70)#70 + 276 x(71)#71
      + 166 x(72)#72 + 791 x(73)#73 + 154 x(74)#74 + 433 x(75)#75
      + 936 x(76)#76 + 787 x(77)#77 + 799 x(78)#78 + 287 x(79)#79
      + 433 x(80)#80 + 506 x(81)#81 + 137 x(82)#82 + 70 x(83)#83 + 39 x(84)#84
      + 280 x(85)#85 + 842 x(86)#86 + 594 x(87)#87 + 379 x(88)#88
      + 511 x(89)#89 + 213 x(90)#90 + 597 x(91)#91 + 108 x(92)#92 + 18 x(93)#93
      + 453 x(94)#94 + 902 x(95)#95 + 574 x(96)#96 + 107 x(97)#97
      + 333 x(98)#98 + 500 x(99)#99 <= 23398
Bounds
 0 <= x(0)#0 <= 1
 0 <= x(1)#1 <= 1
 0 <= x(2)#2 <= 1
 0 <= x(3)#3 <= 1
 0 <= x(4)#4 <= 1
 0 <= x(5)#5 <= 1
 0 <= x(6)#6 <= 1
 0 <= x(7)#7 <= 1
 0 <= x(8)#8 <= 1
 0 <= x(9)#9 <= 1
 0 <= x(10)#10 <= 1
 0 <= x(11)#11 <= 1
 0 <= x(12)#12 <= 1
 0 <= x(13)#13 <= 1
 0 <= x(14)#14 <= 1
 0 <= x(15)#15 <= 1
 0 <= x(16)#16 <= 1
 0 <= x(17)#17 <= 1
 0 <= x(18)#18 <= 1
 0 <= x(19)#19 <= 1
 0 <= x(20)#20 <= 1
 0 <= x(21)#21 <= 1
 0 <= x(22)#22 <= 1
 0 <= x(23)#23 <= 1
 0 <= x(24)#24 <= 1
 0 <= x(25)#25 <= 1
 0 <= x(26)#26 <= 1
 0 <= x(27)#27 <= 1
 0 <= x(28)#28 <= 1
 0 <= x(29)#29 <= 1
 0 <= x(30)#30 <= 1
 0 <= x(31)#31 <= 1
 0 <= x(32)#32 <= 1
 0 <= x(33)#33 <= 1
 0 <= x(34)#34 <= 1
 0 <= x(35)#35 <= 1
 0 <= x(36)#36 <= 1
 0 <= x(37)#37 <= 1
 0 <= x(38)#38 <= 1
 0 <= x(39)#39 <= 1
 0 <= x(40)#40 <= 1
 0 <= x(41)#41 <= 1
 0 <= x(42)#42 <= 1
 0 <= x(43)#43 <= 1
 0 <= x(44)#44 <= 1
 0 <= x(45)#45 <= 1
 0 <= x(46)#46 <= 1
 0 <= x(47)#47 <= 1
 0 <= x(48)#48 <= 1
 0 <= x(49)#49 <= 1
 0 <= x(50)#50 <= 1
 0 <= x(51)#51 <= 1
 0 <= x(52)#52 <= 1
 0 <= x(53)#53 <= 1
 0 <= x(54)#54 <= 1
 0 <= x(55)#55 <= 1
 0 <= x(56)#56 <= 1
 0 <= x(57)#57 <= 1
 0 <= x(58)#58 <= 1
 0 <= x(59)#59 <= 1
 0 <= x(60)#60 <= 1
 0 <= x(61)#61 <= 1
 0 <= x(62)#62 <= 1
 0 <= x(63)#63 <= 1
 0 <= x(64)#64 <= 1
 0 <= x(65)#65 <= 1
 0 <= x(66)#66 <= 1
 0 <= x(67)#67 <= 1
 0 <= x(68)#68 <= 1
 0 <= x(69)#69 <= 1
 0 <= x(70)#70 <= 1
 0 <= x(71)#71 <= 1
 0 <= x(72)#72 <= 1
 0 <= x(73)#73 <= 1
 0 <= x(74)#74 <= 1
 0 <= x(75)#75 <= 1
 0 <= x(76)#76 <= 1
 0 <= x(77)#77 <= 1
 0 <= x(78)#78 <= 1
 0 <= x(79)#79 <= 1
 0 <= x(80)#80 <= 1
 0 <= x(81)#81 <= 1
 0 <= x(82)#82 <= 1
 0 <= x(83)#83 <= 1
 0 <= x(84)#84 <= 1
 0 <= x(85)#85 <= 1
 0 <= x(86)#86 <= 1
 0 <= x(87)#87 <= 1
 0 <= x(88)#88 <= 1
 0 <= x(89)#89 <= 1
 0 <= x(90)#90 <= 1
 0 <= x(91)#91 <= 1
 0 <= x(92)#92 <= 1
 0 <= x(93)#93 <= 1
 0 <= x(94)#94 <= 1
 0 <= x(95)#95 <= 1
 0 <= x(96)#96 <= 1
 0 <= x(97)#97 <= 1
 0 <= x(98)#98 <= 1
 0 <= x(99)#99 <= 1
Generals
 x(0)#0  x(1)#1  x(2)#2  x(3)#3  x(4)#4  x(5)#5  x(6)#6  x(7)#7  x(8)#8 
 x(9)#9  x(10)#10  x(11)#11  x(12)#12  x(13)#13  x(14)#14  x(15)#15  x(16)#16 
 x(17)#17  x(18)#18  x(19)#19  x(20)#20  x(21)#21  x(22)#22  x(23)#23 
 x(24)#24  x(25)#25  x(26)#26  x(27)#27  x(28)#28  x(29)#29  x(30)#30 
 x(31)#31  x(32)#32  x(33)#33  x(34)#34  x(35)#35  x(36)#36  x(37)#37 
 x(38)#38  x(39)#39  x(40)#40  x(41)#41  x(42)#42  x(43)#43  x(44)#44 
 x(45)#45  x(46)#46  x(47)#47  x(48)#48  x(49)#49  x(50)#50  x(51)#51 
 x(52)#52  x(53)#53  x(54)#54  x(55)#55  x(56)#56  x(57)#57  x(58)#58 
 x(59)#59  x(60)#60  x(61)#61  x(62)#62  x(63)#63  x(64)#64  x(65)#65 
 x(66)#66  x(67)#67  x(68)#68  x(69)#69  x(70)#70  x(71)#71  x(72)#72 
 x(73)#73  x(74)#74  x(75)#75  x(76)#76  x(77)#77  x(78)#78  x(79)#79 
 x(80)#80  x(81)#81  x(82)#82  x(83)#83  x(84)#84  x(85)#85  x(86)#86 
 x(87)#87  x(88)#88  x(89)#89  x(90)#90  x(91)#91  x(92)#92  x(93)#93 
 x(94)#94  x(95)#95  x(96)#96  x(97)#97  x(98)#98  x(99)#99 
End
